c ren 1 -> 1
c ren 2 -> 2
c ren 3 -> 3
c ren 4 -> 4
c ren 5 -> 5
c ren 6 -> 6
c ren 9 -> 7
c ren 10 -> 8
c ren 11 -> 9
c ren 12 -> 10
c ren 13 -> 11
c ren 14 -> 12
c ren 15 -> 13
c ren 16 -> 14
c ren 17 -> 15
c ren 18 -> 16
c ren 19 -> 17
c ren 20 -> 18
c ren 21 -> 19
c ren 22 -> 20
c ren 23 -> 21
c ren 24 -> 22
c ren 25 -> 23
c ren 26 -> 24
c ren 27 -> 25
c ren 28 -> 26
c ren 29 -> 27
c ren 30 -> 28
c ren 31 -> 29
c ren 32 -> 30
c ren 33 -> 31
c ren 34 -> 32
c ren 35 -> 33
c ren 36 -> 34
c ren 37 -> 35
c ren 38 -> 36
c ren 39 -> 37
c ren 40 -> 38
c ren 42 -> 39
c ren 43 -> 40
c ren 52 -> 41
c ren 55 -> 42
c ren 58 -> 43
c ren 99 -> 44
c ren 100 -> 45
c ren 102 -> 46
c ren 103 -> 47
c ren 104 -> 48
c ren 112 -> 49
c ren 114 -> 50
c ren 118 -> 51
c ren 123 -> 52
c ren 128 -> 53
c ren 130 -> 54
c ren 139 -> 55
c ren 140 -> 56
c ren 148 -> 57
c ren 149 -> 58
c ren 159 -> 59
c ren 176 -> 60
c ren 194 -> 61
p cnf 61 396
a 7 8 9 10 11 12 13 14 15 16 17 18 19 20 21 22 23 24 25 26 27 28 29 30 31 32 33 34 0
d 1 7 8 9 10 11 12 13 14 15 16 17 18 19 20 21 22 23 24 0
d 2 7 8 9 10 11 12 13 14 15 16 17 18 19 20 21 22 23 24 0
d 3 7 8 9 10 11 12 13 14 15 16 17 18 19 20 21 22 23 24 0
d 4 7 8 9 10 11 12 13 14 15 16 17 18 19 20 21 22 23 24 0
d 5 7 8 9 10 11 12 13 14 15 16 17 18 19 20 21 22 23 24 0
d 6 7 8 9 10 11 12 13 14 15 16 17 18 19 20 21 22 23 24 0
d 35 15 16 17 18 19 20 21 22 23 24 0
d 36 25 26 27 28 29 30 31 32 33 34 0
e 37 38 39 40 41 42 43 44 45 46 47 48 49 50 51 52 53 54 55 56 57 58 59 60 61 0
-33 -37 0
23 -37 0
33 -38 0
-23 -38 0
-34 -39 0
24 -39 0
12 21 -31 32 -35 36 44 -45 -52 54 55 56 57 58 -59 -60 -61 0
34 -40 0
-24 -40 0
8 16 -17 -27 28 44 -48 50 60 0
1 -2 3 4 5 6 -15 -24 44 0
-10 11 29 30 44 -46 47 -49 61 0
-15 -21 -31 32 -35 36 45 -54 55 56 57 58 -59 -60 -61 0
-10 11 29 -30 44 46 47 -49 61 0
15 -16 25 -26 41 0
12 13 21 54 0
15 52 -53 0
-15 -16 -25 -26 41 0
12 15 31 -32 -35 36 54 55 56 58 -59 -60 -61 0
-15 16 -25 26 41 0
-12 -31 32 -35 36 44 45 -54 55 56 57 58 -59 -60 -61 0
15 16 25 26 41 0
-12 21 31 -32 -35 36 44 45 -52 53 55 56 57 58 -59 -60 -61 0
-21 -31 32 -35 36 -44 45 55 56 58 -59 -60 -61 0
-12 -21 -31 -32 -35 36 -45 -52 -53 55 56 57 58 -59 -60 -61 0
-8 15 -27 -28 50 60 0
-12 21 -31 32 -35 36 44 -45 52 54 55 56 57 58 -59 -60 -61 0
-17 -27 42 0
-8 16 -27 -28 44 -48 -50 60 0
12 -21 -31 32 -35 36 44 -45 52 54 55 56 57 58 -59 -60 -61 0
21 31 32 -35 36 45 -53 55 56 57 58 -59 -60 -61 0
17 27 42 0
21 31 -32 -35 36 -44 -45 55 56 58 -59 -60 -61 0
-18 -28 43 0
21 31 -32 -35 36 -45 -53 55 56 57 58 -59 -60 -61 0
12 -21 31 -32 -35 36 44 45 -52 53 55 56 57 58 -59 -60 -61 0
12 -15 -21 -31 -32 -35 36 44 45 52 54 55 56 57 58 -59 -60 -61 0
-12 21 -31 -32 -35 36 44 45 52 54 55 56 57 58 -59 -60 -61 0
18 28 43 0
12 -21 31 32 -35 36 44 -45 -52 53 55 56 57 58 -59 -60 -61 0
12 31 32 -35 36 44 45 -53 55 56 57 58 -59 -60 -61 0
14 -15 -23 -54 -56 0
19 20 21 22 29 30 31 32 35 -36 37 38 39 40 -41 -42 -43 0
21 52 -53 0
19 20 21 -22 29 30 31 -32 35 -36 37 38 39 40 -41 -42 -43 0
-19 20 -21 22 -29 30 -31 32 35 -36 37 38 39 40 -41 -42 -43 0
-19 20 -21 -22 -29 30 -31 -32 35 -36 37 38 39 40 -41 -42 -43 0
19 20 -21 22 29 30 -31 32 35 -36 37 38 39 40 -41 -42 -43 0
19 20 -21 -22 29 30 -31 -32 35 -36 37 38 39 40 -41 -42 -43 0
-19 -20 21 -22 -29 -30 31 -32 35 -36 37 38 39 40 -41 -42 -43 0
19 -20 21 22 29 -30 31 32 35 -36 37 38 39 40 -41 -42 -43 0
19 -20 21 -22 29 -30 31 -32 35 -36 37 38 39 40 -41 -42 -43 0
19 -20 -21 22 29 -30 -31 32 35 -36 37 38 39 40 -41 -42 -43 0
-19 -20 -21 -22 -29 -30 -31 -32 35 -36 37 38 39 40 -41 -42 -43 0
19 -20 -21 -22 29 -30 -31 -32 35 -36 37 38 39 40 -41 -42 -43 0
-19 -20 -21 22 -29 -30 -31 32 35 -36 37 38 39 40 -41 -42 -43 0
-12 -21 -31 32 -35 36 44 -45 -52 53 55 56 57 58 -59 -60 -61 0
12 21 31 -32 -35 36 -45 52 -54 55 56 57 58 -59 -60 -61 0
-19 20 21 -22 -29 30 31 -32 35 -36 37 38 39 40 -41 -42 -43 0
-19 20 21 22 -29 30 31 32 35 -36 37 38 39 40 -41 -42 -43 0
-21 -31 -32 -35 36 -44 -45 55 56 58 -59 -60 -61 0
-19 -20 21 22 -29 -30 31 32 35 -36 37 38 39 40 -41 -42 -43 0
-12 -21 -31 -32 -35 36 44 45 -52 53 55 56 57 58 -59 -60 -61 0
12 21 -53 0
-12 -21 31 32 -35 36 44 -45 52 53 55 56 57 58 -59 -60 -61 0
12 21 31 32 -35 36 44 -45 52 54 55 56 57 58 -59 -60 -61 0
21 31 32 -35 36 -44 45 55 56 58 -59 -60 -61 0
-12 15 -31 -32 -35 36 54 55 56 58 -59 -60 -61 0
-15 23 -24 44 -54 -58 0
-10 -11 -49 52 0
-10 11 -29 -30 44 46 -47 -49 61 0
16 -25 26 -44 59 0
-8 15 -27 28 -50 60 0
-16 -17 -21 -23 -24 -35 -45 -46 -47 -48 0
-31 32 -35 36 44 45 -52 -54 55 56 57 58 -59 -60 -61 0
-12 -15 -21 31 -32 -35 36 44 45 52 53 55 56 57 58 -59 -60 -61 0
-31 -32 -35 36 44 -45 -52 -54 55 56 57 58 -59 -60 -61 0
12 31 -32 -35 36 44 -45 -53 55 56 57 58 -59 -60 -61 0
7 15 -25 26 59 0
-14 15 -56 0
-14 -23 -45 54 -56 0
-14 -15 -24 -53 -57 0
14 24 45 53 -57 0
1 2 -3 4 5 -6 -44 0
-1 2 3 4 5 -6 -44 0
1 2 -3 4 -5 6 -44 0
1 -2 3 4 5 -6 -44 0
-1 -2 -3 -4 -5 6 -15 -24 44 0
-1 2 3 4 -5 6 -44 0
1 2 -3 -4 -5 6 -15 -24 44 0
1 -2 3 -4 -5 6 -15 -24 44 0
-1 2 -3 4 5 -6 -15 -24 44 0
-1 2 3 -4 -5 6 -15 -24 44 0
1 -2 3 -4 5 6 -44 0
-1 2 -3 4 5 6 -44 0
1 2 -3 -4 -5 -6 -44 0
-1 -2 -3 4 5 -6 -44 0
-1 2 3 -4 -5 -6 -44 0
1 2 -3 -4 5 -6 -15 -24 44 0
1 2 3 -4 5 -6 -44 0
-1 2 -3 -4 -5 6 -44 0
-1 2 3 -4 5 6 -44 0
1 2 3 4 5 -6 -15 -24 44 0
1 2 3 -4 5 6 -15 -24 44 0
1 -2 3 4 -5 -6 -15 -24 44 0
1 2 3 4 -5 6 -15 -24 44 0
-1 2 -3 -4 5 6 -15 -24 44 0
1 2 3 4 5 6 -44 0
1 2 -3 4 5 6 -15 -24 44 0
1 2 3 4 -5 -6 -44 0
-1 2 -3 -4 5 -6 -44 0
1 2 3 -4 -5 -6 -15 -24 44 0
-1 2 -3 -4 -5 -6 -15 -24 44 0
-1 -2 -3 4 5 6 -15 -24 44 0
-1 2 -3 4 -5 -6 -44 0
1 -2 3 4 -5 6 -44 0
1 2 -3 -4 5 6 -44 0
-1 -2 -3 4 -5 -6 -15 -24 44 0
-1 2 -3 4 -5 6 -15 -24 44 0
-1 -2 -3 -4 5 -6 -15 -24 44 0
1 -2 3 -4 5 -6 -15 -24 44 0
-1 2 3 4 -5 -6 -15 -24 44 0
1 2 3 -4 -5 6 -44 0
1 -2 -3 -4 -5 -6 -15 -24 44 0
-1 -2 -3 4 -5 6 -44 0
1 -2 3 -4 -5 -6 -44 0
1 -2 -3 -4 5 -6 -44 0
1 -2 -3 -4 5 6 -15 -24 44 0
-1 2 3 -4 5 -6 -15 -24 44 0
22 -45 0
15 -45 0
-15 -22 45 0
13 15 52 54 0
-13 -15 -21 -52 53 0
12 21 31 -32 -35 36 44 45 52 54 55 56 57 58 -59 -60 -61 0
20 -46 0
15 -46 0
-15 -20 46 0
19 -47 0
15 -47 0
-15 -19 47 0
18 -48 0
15 -48 0
-15 -18 48 0
8 15 27 -28 50 60 0
-8 -9 -15 -17 49 0
-12 21 31 32 -35 36 44 -45 -52 53 55 56 57 58 -59 -60 -61 0
-7 15 -25 -26 59 0
-7 8 -15 -16 17 -27 -28 44 48 50 60 0
8 16 -49 0
-7 8 -15 -16 -17 27 -28 44 48 49 60 0
8 27 -28 44 -48 -49 60 0
8 15 27 28 -50 60 0
9 16 17 50 0
17 27 -28 -44 -48 60 0
7 -15 -17 -27 28 48 -50 60 0
8 16 17 27 28 44 -48 50 60 0
8 17 -49 0
9 -49 0
10 48 49 51 0
-9 -50 0
8 27 28 44 48 -49 60 0
-8 16 -17 27 28 44 -48 49 60 0
11 -29 30 44 46 47 48 49 51 61 0
-10 -51 0
11 47 48 49 -52 0
10 46 47 -52 0
46 47 -50 -52 0
11 -29 -30 44 -46 47 -50 51 61 0
-11 -29 -30 44 46 47 -50 51 61 0
10 11 -29 30 44 46 47 51 61 0
11 29 -30 44 46 -47 48 49 51 61 0
-11 -46 52 0
-11 29 -30 44 46 47 -51 61 0
10 11 -29 -30 44 -46 47 51 61 0
13 21 52 54 0
11 -29 30 44 46 47 -50 51 61 0
12 21 31 32 -35 36 45 52 -54 55 56 57 58 -59 -60 -61 0
11 29 30 44 -46 -47 -50 51 61 0
10 -50 51 0
12 13 15 54 0
13 -53 0
11 47 -50 -52 0
14 24 -54 -57 0
-13 -54 0
15 31 32 -35 36 -53 55 56 57 58 -59 -60 -61 0
14 -15 -24 44 45 53 -58 0
-23 24 -45 54 -58 0
14 -15 -24 44 -54 -58 0
-14 -15 -23 24 -58 0
-14 -15 -23 -53 54 -56 0
14 -15 23 -24 44 -58 0
-8 -15 16 -17 27 -28 44 48 49 60 0
14 23 -54 -55 0
-14 23 -53 54 -55 0
-14 23 -45 54 -55 0
-15 -23 -24 -53 54 -57 0
14 -15 -23 44 -53 54 -55 0
-14 -24 -45 54 -57 0
-23 -24 -45 54 -57 0
-33 -55 0
-23 -44 -56 0
33 -56 0
7 8 -17 -27 28 44 -48 50 60 0
7 8 9 50 0
-14 15 -53 54 -58 0
-14 -15 -23 44 45 53 -55 0
24 -44 0
14 23 45 53 -55 0
14 23 44 -53 54 -56 0
-14 15 -53 54 -55 0
-14 23 44 45 53 -56 0
8 -15 16 -17 -27 -28 44 48 50 60 0
14 15 -54 -55 0
14 15 -57 0
-34 -57 0
15 -54 -57 0
14 -23 44 -45 54 -55 0
34 -58 0
-44 -57 0
23 -44 -55 0
-17 -27 28 -44 48 60 0
14 23 44 -45 54 -56 0
-10 -11 29 30 46 47 -49 50 61 0
-7 8 -16 17 -27 28 44 -48 50 60 0
7 17 -49 0
15 53 -57 0
7 -15 -16 -25 -26 59 0
-14 -15 -23 44 -54 -55 0
-14 23 44 -54 -56 0
14 15 53 -55 0
25 -59 0
14 -15 -23 45 53 -56 0
-7 -15 -16 -17 -50 0
-7 -8 -15 -16 17 27 -28 44 48 49 60 0
7 27 28 44 48 -49 60 0
-8 -15 -17 -50 0
7 27 -28 44 -48 -49 60 0
-7 -8 -16 17 27 28 44 -48 49 60 0
16 17 -49 0
7 9 17 50 0
15 -49 0
-7 -8 -16 -17 -27 -28 -48 -49 60 0
-7 -8 -15 -16 -50 0
-7 -15 -16 -27 28 44 48 -50 60 0
17 27 -28 -48 -49 60 0
7 -8 17 -27 -28 44 48 50 60 0
-8 16 17 -27 28 44 -48 50 60 0
17 27 28 48 -49 60 0
-7 -8 -16 -17 -27 28 44 -48 49 60 0
-7 -8 -15 -16 -17 -27 -28 44 48 49 60 0
7 8 -15 -17 -27 -28 44 48 50 60 0
-7 -15 -16 -25 26 44 59 0
-7 -8 -16 -17 -27 28 48 -49 60 0
9 15 50 0
-17 -27 -28 -44 -48 60 0
7 -8 -27 28 44 48 -50 60 0
12 15 31 32 -35 36 52 -54 55 56 58 -59 -60 -61 0
7 8 17 27 -28 -48 -50 60 0
17 27 28 -44 48 60 0
-7 8 -16 -17 27 28 44 -48 49 60 0
-7 -8 -9 -15 -16 49 0
-7 -16 -27 -28 44 -48 -50 60 0
-8 16 -27 28 44 48 -50 60 0
-16 -25 -26 -44 59 0
7 -8 17 -27 28 44 -48 50 60 0
7 -17 -27 -28 -48 -50 60 0
7 8 17 27 28 44 -48 50 60 0
-10 -11 -29 30 46 -47 -48 50 61 0
-11 -29 30 44 -46 -47 -51 61 0
-11 -29 -30 44 46 -47 -51 61 0
11 -51 -52 0
29 -30 -44 -46 47 61 0
-10 -11 -29 -30 -46 -47 -48 50 61 0
10 -11 -29 30 44 -46 47 51 61 0
-11 -29 -30 44 46 47 48 49 51 61 0
46 47 48 49 -52 0
-10 11 -29 -30 44 46 -47 -48 50 61 0
-11 -47 51 52 0
-10 -46 -48 50 52 0
11 46 -52 0
-11 29 30 44 -46 47 -51 61 0
-10 -11 29 -30 -46 47 -48 50 61 0
11 29 -30 -46 47 -51 61 0
-46 -47 51 52 0
46 -51 -52 0
-10 -11 -48 50 52 0
-29 30 -44 46 -47 61 0
10 11 47 -52 0
10 -11 29 30 44 46 -47 51 61 0
-29 -30 -44 -46 -47 61 0
10 11 29 -30 44 46 -47 51 61 0
10 -11 29 -30 44 -46 -47 51 61 0
11 -29 -30 -46 -47 -51 61 0
29 30 -44 46 47 61 0
-10 11 -29 30 44 -46 -47 -48 50 61 0
-11 -29 30 44 -46 47 48 49 51 61 0
-10 -11 29 30 46 47 -48 50 61 0
11 -29 -30 44 -46 47 48 49 51 61 0
-12 -15 -21 -54 0
-12 -13 -15 -21 53 0
-12 -15 -21 -31 32 -35 36 45 -52 -53 55 56 57 58 -59 -60 -61 0
-11 -29 30 44 -46 47 -50 51 61 0
-48 50 -51 0
-12 -52 -54 0
-12 -13 -52 53 0
12 52 -53 0
12 13 52 54 0
-10 11 29 -30 44 46 47 -48 50 61 0
7 16 -25 26 59 0
-10 11 -29 30 44 -46 -47 -49 50 61 0
7 -8 -27 -28 44 -48 -50 60 0
-10 -46 -49 50 52 0
8 16 17 27 -28 44 48 50 60 0
8 16 17 27 28 48 -50 60 0
16 27 28 44 48 -49 60 0
-8 16 17 -27 -28 44 48 50 60 0
-14 -15 -23 -24 -57 0
11 29 30 46 47 -51 61 0
-11 29 -30 44 -46 -47 48 49 51 61 0
11 -29 30 46 -47 -51 61 0
-10 11 29 30 44 -46 47 -48 50 61 0
-11 29 30 44 46 -47 48 49 51 61 0
7 8 17 27 28 48 -50 60 0
7 -8 -15 -17 27 -28 44 48 49 60 0
-10 -11 -29 30 46 -47 -49 50 61 0
-11 29 30 44 46 -47 -50 51 61 0
-10 -11 -29 -30 -46 -47 -49 50 61 0
-7 16 -25 -26 44 59 0
16 27 -28 44 -48 -49 60 0
7 -8 -17 27 28 44 -48 49 60 0
8 9 16 50 0
15 16 17 18 19 20 21 22 23 24 35 0
-49 50 -51 0
10 11 29 30 44 -46 -47 51 61 0
16 -17 -27 -28 -48 -50 60 0
-7 -9 -15 -16 -17 49 0
11 29 30 44 -46 -47 48 49 51 61 0
10 -11 -29 -30 44 46 47 51 61 0
7 8 17 27 -28 44 48 50 60 0
7 8 -49 0
-11 29 -30 44 -46 -47 -50 51 61 0
11 29 -30 44 46 -47 -50 51 61 0
8 9 17 50 0
-10 -11 29 -30 -46 47 -49 50 61 0
8 16 17 27 -28 -48 -50 60 0
1 -2 -3 -4 -5 6 -44 0
1 -2 -3 4 -5 6 -15 -24 44 0
-15 16 -17 -27 28 48 -50 60 0
1 -2 -3 4 -5 -6 -44 0
1 -2 -3 4 5 -6 -15 -24 44 0
1 -2 -3 4 5 6 -44 0
1 2 -3 4 -5 -6 -15 -24 44 0
-1 2 3 4 5 6 -15 -24 44 0
-1 -2 3 -4 -5 -6 -15 -24 44 0
-1 -2 -3 -4 5 6 -44 0
-1 -2 -3 -4 -5 -6 -44 0
-1 -2 3 -4 5 6 -15 -24 44 0
-1 -2 3 -4 5 -6 -44 0
-1 -2 3 4 -5 6 -15 -24 44 0
-1 -2 3 -4 -5 6 -44 0
-1 -2 3 4 5 -6 -15 -24 44 0
-1 -2 3 4 -5 -6 -44 0
-1 -2 3 4 5 6 -44 0
15 -44 0
-15 23 -24 44 45 53 -58 0
-15 -23 24 -53 54 -58 0
-14 24 -45 54 -58 0
14 15 -53 54 -56 0
-14 24 -53 54 -58 0
14 23 24 -57 0
23 24 -54 -57 0
23 24 45 53 -57 0
-12 -31 -32 -35 36 44 -45 -54 55 56 57 58 -59 -60 -61 0
-15 -21 -52 -54 0
-21 -31 -32 -35 36 -45 -54 55 56 57 58 -59 -60 -61 0
31 32 -35 36 44 45 52 -53 55 56 57 58 -59 -60 -61 0
31 -32 -35 36 44 -45 52 -53 55 56 57 58 -59 -60 -61 0
12 15 -53 0
12 21 -31 -32 -35 36 44 45 -52 54 55 56 57 58 -59 -60 -61 0
19 20 21 22 29 30 31 32 -35 36 37 38 39 40 -41 -42 -43 0
19 20 21 -22 29 30 31 -32 -35 36 37 38 39 40 -41 -42 -43 0
19 20 -21 22 29 30 -31 32 -35 36 37 38 39 40 -41 -42 -43 0
19 20 -21 -22 29 30 -31 -32 -35 36 37 38 39 40 -41 -42 -43 0
19 -20 21 22 29 -30 31 32 -35 36 37 38 39 40 -41 -42 -43 0
19 -20 21 -22 29 -30 31 -32 -35 36 37 38 39 40 -41 -42 -43 0
19 -20 -21 22 29 -30 -31 32 -35 36 37 38 39 40 -41 -42 -43 0
19 -20 -21 -22 29 -30 -31 -32 -35 36 37 38 39 40 -41 -42 -43 0
-19 20 21 22 -29 30 31 32 -35 36 37 38 39 40 -41 -42 -43 0
-19 20 21 -22 -29 30 31 -32 -35 36 37 38 39 40 -41 -42 -43 0
-19 20 -21 22 -29 30 -31 32 -35 36 37 38 39 40 -41 -42 -43 0
-19 20 -21 -22 -29 30 -31 -32 -35 36 37 38 39 40 -41 -42 -43 0
-19 -20 21 22 -29 -30 31 32 -35 36 37 38 39 40 -41 -42 -43 0
-19 -20 21 -22 -29 -30 31 -32 -35 36 37 38 39 40 -41 -42 -43 0
-19 -20 -21 22 -29 -30 -31 32 -35 36 37 38 39 40 -41 -42 -43 0
-19 -20 -21 -22 -29 -30 -31 -32 -35 36 37 38 39 40 -41 -42 -43 0
